3 3 4 
3 2 1 3 1 18 2 17 3 17 2 2 1 26 4 23 2 1 4 1 43 2 38 3 43 4 41 2 4 1 29 2 31 3 30 4 28 2 2 4 1 46 2 50 3 51 4 55 3 3 1 57 3 65 4 61 
3 2 1 3 1 32 2 29 3 27 3 3 1 54 2 53 3 53 2 1 4 1 46 2 54 3 51 4 52 2 1 3 55 2 2 4 1 75 2 67 3 75 4 74 3 2 1 56 4 62 
3 2 1 3 1 52 2 51 4 46 2 1 2 59 2 2 2 3 74 4 74 3 1 3 81 2 2 3 1 83 2 96 3 97 3 3 2 95 3 97 4 91 
